NAME 
OBJSENSE MAX
ROWS
 N  OBJ
 L  packing[0]
 L  packing[1]
 L  packing[2]
 L  packing[3]
 L  packing[4]
 L  packing[5]
 L  packing[6]
 L  packing[7]
 L  packing[8]
 L  packing[9]
 L  packing[10]
 L  packing[11]
 L  packing[12]
 L  packing[13]
 L  packing[14]
 L  packing[15]
 L  packing[16]
 L  packing[17]
 L  packing[18]
 L  packing[19]
 L  packing[20]
 L  packing[21]
 L  packing[22]
 L  packing[23]
 L  packing[24]
 L  packing[25]
 L  packing[26]
 L  packing[27]
 L  packing[28]
 L  packing[29]
 L  packing[30]
 L  packing[31]
 L  packing[32]
 L  packing[33]
 L  packing[34]
 L  packing[35]
 L  packing[36]
 L  packing[37]
 L  packing[38]
 L  packing[39]
 L  packing[40]
 L  packing[41]
 L  packing[42]
 L  packing[43]
 L  packing[44]
 L  packing[45]
 L  packing[46]
 L  packing[47]
 L  packing[48]
 L  packing[49]
 L  R50     
COLUMNS
    MARKER    'MARKER'                 'INTORG'
    x[1]      OBJ       54
    x[1]      packing[0]  104
    x[1]      packing[1]  84
    x[1]      packing[2]  7
    x[1]      packing[3]  2
    x[1]      packing[4]  166
    x[1]      packing[5]  13
    x[1]      packing[6]  5
    x[1]      packing[7]  165
    x[1]      packing[10]  149
    x[1]      packing[11]  167
    x[1]      packing[14]  182
    x[1]      packing[15]  52
    x[1]      packing[16]  104
    x[1]      packing[17]  3
    x[1]      packing[19]  70
    x[1]      packing[20]  26
    x[1]      packing[21]  119
    x[1]      packing[22]  36
    x[1]      packing[23]  118
    x[1]      packing[25]  105
    x[1]      packing[26]  88
    x[1]      packing[27]  152
    x[1]      packing[28]  1
    x[1]      packing[31]  148
    x[1]      packing[32]  61
    x[1]      packing[33]  67
    x[1]      packing[35]  46
    x[1]      packing[37]  40
    x[1]      packing[38]  68
    x[1]      packing[39]  111
    x[1]      packing[40]  34
    x[1]      packing[41]  137
    x[1]      packing[42]  87
    x[1]      packing[43]  141
    x[1]      packing[45]  199
    x[1]      packing[46]  187
    x[1]      packing[47]  161
    x[1]      packing[48]  94
    x[1]      packing[49]  174
    x[2]      OBJ       58
    x[2]      packing[0]  74
    x[2]      packing[2]  33
    x[2]      packing[4]  71
    x[2]      packing[6]  100
    x[2]      packing[7]  181
    x[2]      packing[8]  93
    x[2]      packing[10]  172
    x[2]      packing[11]  19
    x[2]      packing[12]  4
    x[2]      packing[13]  146
    x[2]      packing[14]  175
    x[2]      packing[15]  32
    x[2]      packing[17]  120
    x[2]      packing[18]  168
    x[2]      packing[19]  41
    x[2]      packing[20]  199
    x[2]      packing[21]  186
    x[2]      packing[23]  186
    x[2]      packing[24]  19
    x[2]      packing[25]  153
    x[2]      packing[28]  18
    x[2]      packing[29]  9
    x[2]      packing[31]  30
    x[2]      packing[32]  105
    x[2]      packing[33]  125
    x[2]      packing[34]  37
    x[2]      packing[35]  122
    x[2]      packing[36]  174
    x[2]      packing[37]  175
    x[2]      packing[38]  41
    x[2]      packing[40]  128
    x[2]      packing[41]  128
    x[2]      packing[42]  87
    x[2]      packing[44]  25
    x[2]      packing[45]  177
    x[2]      packing[46]  144
    x[2]      packing[47]  71
    x[2]      packing[48]  176
    x[2]      packing[49]  76
    x[3]      OBJ       109
    x[3]      packing[0]  58
    x[3]      packing[2]  82
    x[3]      packing[3]  77
    x[3]      packing[4]  52
    x[3]      packing[5]  159
    x[3]      packing[6]  28
    x[3]      packing[7]  185
    x[3]      packing[9]  171
    x[3]      packing[11]  23
    x[3]      packing[12]  52
    x[3]      packing[13]  45
    x[3]      packing[14]  66
    x[3]      packing[15]  60
    x[3]      packing[16]  13
    x[3]      packing[17]  101
    x[3]      packing[18]  63
    x[3]      packing[19]  156
    x[3]      packing[20]  186
    x[3]      packing[21]  116
    x[3]      packing[22]  13
    x[3]      packing[23]  136
    x[3]      packing[24]  54
    x[3]      packing[25]  55
    x[3]      packing[26]  135
    x[3]      packing[27]  146
    x[3]      packing[28]  50
    x[3]      packing[29]  137
    x[3]      packing[30]  106
    x[3]      packing[31]  111
    x[3]      packing[32]  68
    x[3]      packing[33]  50
    x[3]      packing[35]  10
    x[3]      packing[37]  112
    x[3]      packing[39]  20
    x[3]      packing[40]  158
    x[3]      packing[41]  21
    x[3]      packing[42]  188
    x[3]      packing[43]  155
    x[3]      packing[47]  34
    x[3]      packing[48]  68
    x[3]      packing[49]  37
    x[4]      OBJ       140
    x[4]      packing[2]  55
    x[4]      packing[3]  15
    x[4]      packing[4]  165
    x[4]      packing[5]  168
    x[4]      packing[6]  119
    x[4]      packing[7]  127
    x[4]      packing[8]  123
    x[4]      packing[9]  126
    x[4]      packing[10]  13
    x[4]      packing[11]  12
    x[4]      packing[12]  14
    x[4]      packing[13]  133
    x[4]      packing[14]  55
    x[4]      packing[15]  13
    x[4]      packing[16]  45
    x[4]      packing[17]  194
    x[4]      packing[19]  161
    x[4]      packing[20]  109
    x[4]      packing[21]  184
    x[4]      packing[24]  94
    x[4]      packing[26]  47
    x[4]      packing[27]  186
    x[4]      packing[28]  88
    x[4]      packing[29]  21
    x[4]      packing[30]  131
    x[4]      packing[31]  126
    x[4]      packing[32]  123
    x[4]      packing[33]  35
    x[4]      packing[34]  32
    x[4]      packing[37]  150
    x[4]      packing[38]  19
    x[4]      packing[39]  31
    x[4]      packing[40]  179
    x[4]      packing[41]  158
    x[4]      packing[43]  140
    x[4]      packing[44]  166
    x[4]      packing[46]  32
    x[4]      packing[48]  75
    x[5]      OBJ       123
    x[5]      packing[0]  168
    x[5]      packing[1]  14
    x[5]      packing[2]  3
    x[5]      packing[3]  94
    x[5]      packing[4]  199
    x[5]      packing[5]  184
    x[5]      packing[6]  147
    x[5]      packing[7]  72
    x[5]      packing[8]  136
    x[5]      packing[9]  122
    x[5]      packing[10]  119
    x[5]      packing[12]  127
    x[5]      packing[13]  189
    x[5]      packing[14]  134
    x[5]      packing[19]  35
    x[5]      packing[20]  194
    x[5]      packing[21]  117
    x[5]      packing[22]  95
    x[5]      packing[23]  2
    x[5]      packing[24]  31
    x[5]      packing[26]  7
    x[5]      packing[27]  106
    x[5]      packing[28]  30
    x[5]      packing[31]  13
    x[5]      packing[32]  103
    x[5]      packing[33]  87
    x[5]      packing[34]  101
    x[5]      packing[35]  138
    x[5]      packing[36]  144
    x[5]      packing[37]  116
    x[5]      packing[39]  117
    x[5]      packing[40]  191
    x[5]      packing[41]  51
    x[5]      packing[42]  180
    x[5]      packing[43]  80
    x[5]      packing[44]  77
    x[5]      packing[45]  130
    x[5]      packing[46]  61
    x[5]      packing[48]  108
    x[6]      OBJ       135
    x[6]      packing[0]  35
    x[6]      packing[1]  36
    x[6]      packing[2]  157
    x[6]      packing[3]  94
    x[6]      packing[4]  78
    x[6]      packing[5]  136
    x[6]      packing[6]  43
    x[6]      packing[7]  81
    x[6]      packing[8]  40
    x[6]      packing[9]  71
    x[6]      packing[10]  56
    x[6]      packing[14]  24
    x[6]      packing[17]  165
    x[6]      packing[18]  54
    x[6]      packing[19]  80
    x[6]      packing[20]  96
    x[6]      packing[21]  89
    x[6]      packing[22]  111
    x[6]      packing[23]  197
    x[6]      packing[25]  34
    x[6]      packing[27]  51
    x[6]      packing[28]  160
    x[6]      packing[30]  165
    x[6]      packing[34]  70
    x[6]      packing[36]  164
    x[6]      packing[37]  19
    x[6]      packing[38]  42
    x[6]      packing[40]  182
    x[6]      packing[41]  106
    x[6]      packing[42]  44
    x[6]      packing[43]  133
    x[6]      packing[44]  157
    x[6]      packing[45]  23
    x[6]      packing[46]  47
    x[6]      packing[47]  9
    x[6]      packing[48]  55
    x[6]      packing[49]  8
    x[6]      R50       1
    x[7]      OBJ       125
    x[7]      packing[0]  50
    x[7]      packing[1]  30
    x[7]      packing[2]  122
    x[7]      packing[3]  175
    x[7]      packing[4]  7
    x[7]      packing[6]  77
    x[7]      packing[7]  22
    x[7]      packing[8]  81
    x[7]      packing[10]  38
    x[7]      packing[12]  184
    x[7]      packing[13]  159
    x[7]      packing[15]  137
    x[7]      packing[16]  158
    x[7]      packing[18]  50
    x[7]      packing[19]  34
    x[7]      packing[20]  43
    x[7]      packing[21]  10
    x[7]      packing[22]  100
    x[7]      packing[25]  101
    x[7]      packing[27]  146
    x[7]      packing[28]  17
    x[7]      packing[29]  192
    x[7]      packing[30]  1
    x[7]      packing[31]  56
    x[7]      packing[32]  195
    x[7]      packing[33]  49
    x[7]      packing[35]  170
    x[7]      packing[36]  93
    x[7]      packing[37]  78
    x[7]      packing[38]  86
    x[7]      packing[39]  36
    x[7]      packing[40]  71
    x[7]      packing[41]  161
    x[7]      packing[42]  105
    x[7]      packing[43]  84
    x[7]      packing[44]  186
    x[7]      packing[45]  145
    x[7]      packing[46]  156
    x[7]      packing[47]  96
    x[7]      packing[48]  99
    x[7]      packing[49]  189
    x[7]      R50       1
    x[8]      OBJ       3
    x[8]      packing[0]  94
    x[8]      packing[2]  166
    x[8]      packing[3]  91
    x[8]      packing[4]  9
    x[8]      packing[5]  41
    x[8]      packing[6]  105
    x[8]      packing[7]  40
    x[8]      packing[8]  162
    x[8]      packing[9]  198
    x[8]      packing[11]  101
    x[8]      packing[12]  23
    x[8]      packing[13]  55
    x[8]      packing[14]  104
    x[8]      packing[16]  114
    x[8]      packing[17]  87
    x[8]      packing[20]  45
    x[8]      packing[21]  14
    x[8]      packing[22]  104
    x[8]      packing[25]  51
    x[8]      packing[26]  166
    x[8]      packing[27]  22
    x[8]      packing[28]  24
    x[8]      packing[29]  112
    x[8]      packing[30]  154
    x[8]      packing[31]  144
    x[8]      packing[32]  29
    x[8]      packing[33]  125
    x[8]      packing[34]  193
    x[8]      packing[35]  148
    x[8]      packing[36]  81
    x[8]      packing[37]  40
    x[8]      packing[38]  90
    x[8]      packing[39]  35
    x[8]      packing[41]  62
    x[8]      packing[42]  39
    x[8]      packing[44]  67
    x[8]      packing[46]  60
    x[8]      packing[48]  156
    x[8]      packing[49]  197
    x[9]      OBJ       3
    x[9]      packing[0]  52
    x[9]      packing[1]  178
    x[9]      packing[2]  88
    x[9]      packing[3]  198
    x[9]      packing[6]  10
    x[9]      packing[8]  119
    x[9]      packing[9]  70
    x[9]      packing[10]  130
    x[9]      packing[11]  48
    x[9]      packing[12]  169
    x[9]      packing[13]  17
    x[9]      packing[15]  3
    x[9]      packing[17]  144
    x[9]      packing[19]  24
    x[9]      packing[20]  92
    x[9]      packing[23]  83
    x[9]      packing[25]  26
    x[9]      packing[27]  36
    x[9]      packing[28]  2
    x[9]      packing[29]  60
    x[9]      packing[30]  190
    x[9]      packing[31]  135
    x[9]      packing[32]  165
    x[9]      packing[33]  67
    x[9]      packing[34]  131
    x[9]      packing[35]  52
    x[9]      packing[36]  93
    x[9]      packing[37]  39
    x[9]      packing[39]  156
    x[9]      packing[40]  128
    x[9]      packing[41]  55
    x[9]      packing[43]  44
    x[9]      packing[46]  115
    x[9]      packing[49]  193
    x[10]     OBJ       7
    x[10]     packing[0]  176
    x[10]     packing[1]  185
    x[10]     packing[2]  80
    x[10]     packing[4]  55
    x[10]     packing[5]  14
    x[10]     packing[6]  152
    x[10]     packing[7]  114
    x[10]     packing[9]  139
    x[10]     packing[12]  77
    x[10]     packing[14]  62
    x[10]     packing[15]  54
    x[10]     packing[16]  167
    x[10]     packing[17]  108
    x[10]     packing[19]  15
    x[10]     packing[20]  64
    x[10]     packing[22]  161
    x[10]     packing[24]  95
    x[10]     packing[25]  75
    x[10]     packing[26]  81
    x[10]     packing[27]  85
    x[10]     packing[28]  53
    x[10]     packing[29]  105
    x[10]     packing[30]  71
    x[10]     packing[31]  150
    x[10]     packing[32]  57
    x[10]     packing[33]  154
    x[10]     packing[34]  47
    x[10]     packing[35]  136
    x[10]     packing[36]  7
    x[10]     packing[37]  48
    x[10]     packing[38]  66
    x[10]     packing[39]  192
    x[10]     packing[41]  119
    x[10]     packing[45]  197
    x[10]     packing[46]  125
    x[10]     packing[47]  95
    x[10]     packing[49]  168
    x[11]     OBJ       164
    x[11]     packing[1]  183
    x[11]     packing[2]  102
    x[11]     packing[3]  35
    x[11]     packing[5]  2
    x[11]     packing[6]  142
    x[11]     packing[7]  169
    x[11]     packing[8]  148
    x[11]     packing[9]  27
    x[11]     packing[11]  176
    x[11]     packing[12]  61
    x[11]     packing[13]  172
    x[11]     packing[15]  53
    x[11]     packing[16]  178
    x[11]     packing[17]  63
    x[11]     packing[18]  197
    x[11]     packing[22]  53
    x[11]     packing[23]  136
    x[11]     packing[24]  149
    x[11]     packing[25]  87
    x[11]     packing[26]  161
    x[11]     packing[27]  88
    x[11]     packing[28]  85
    x[11]     packing[29]  44
    x[11]     packing[31]  20
    x[11]     packing[32]  37
    x[11]     packing[35]  1
    x[11]     packing[36]  137
    x[11]     packing[37]  61
    x[11]     packing[38]  103
    x[11]     packing[40]  170
    x[11]     packing[41]  153
    x[11]     packing[42]  2
    x[11]     packing[44]  10
    x[11]     packing[45]  188
    x[11]     packing[46]  150
    x[11]     packing[47]  47
    x[11]     packing[48]  178
    x[11]     R50       1
    x[12]     OBJ       36
    x[12]     packing[1]  106
    x[12]     packing[2]  79
    x[12]     packing[4]  26
    x[12]     packing[5]  182
    x[12]     packing[6]  37
    x[12]     packing[8]  160
    x[12]     packing[9]  151
    x[12]     packing[10]  69
    x[12]     packing[12]  120
    x[12]     packing[14]  181
    x[12]     packing[15]  65
    x[12]     packing[16]  154
    x[12]     packing[17]  137
    x[12]     packing[18]  113
    x[12]     packing[19]  5
    x[12]     packing[21]  43
    x[12]     packing[22]  84
    x[12]     packing[24]  89
    x[12]     packing[25]  107
    x[12]     packing[26]  162
    x[12]     packing[28]  40
    x[12]     packing[29]  116
    x[12]     packing[30]  132
    x[12]     packing[31]  69
    x[12]     packing[32]  62
    x[12]     packing[33]  134
    x[12]     packing[34]  199
    x[12]     packing[35]  180
    x[12]     packing[36]  84
    x[12]     packing[37]  93
    x[12]     packing[40]  52
    x[12]     packing[41]  83
    x[12]     packing[44]  64
    x[12]     packing[45]  162
    x[12]     packing[46]  40
    x[12]     packing[47]  91
    x[12]     packing[48]  33
    x[12]     packing[49]  124
    x[13]     OBJ       7
    x[13]     packing[0]  153
    x[13]     packing[1]  25
    x[13]     packing[3]  134
    x[13]     packing[4]  114
    x[13]     packing[5]  25
    x[13]     packing[6]  15
    x[13]     packing[7]  10
    x[13]     packing[8]  185
    x[13]     packing[11]  78
    x[13]     packing[12]  72
    x[13]     packing[13]  47
    x[13]     packing[15]  14
    x[13]     packing[16]  42
    x[13]     packing[17]  118
    x[13]     packing[18]  121
    x[13]     packing[19]  63
    x[13]     packing[20]  178
    x[13]     packing[21]  47
    x[13]     packing[22]  114
    x[13]     packing[23]  8
    x[13]     packing[25]  72
    x[13]     packing[26]  99
    x[13]     packing[27]  170
    x[13]     packing[31]  138
    x[13]     packing[32]  184
    x[13]     packing[33]  50
    x[13]     packing[34]  171
    x[13]     packing[35]  155
    x[13]     packing[36]  100
    x[13]     packing[37]  169
    x[13]     packing[38]  29
    x[13]     packing[39]  196
    x[13]     packing[40]  188
    x[13]     packing[42]  21
    x[13]     packing[43]  167
    x[13]     packing[44]  171
    x[13]     packing[45]  80
    x[13]     packing[47]  161
    x[13]     packing[49]  161
    x[14]     OBJ       104
    x[14]     packing[0]  159
    x[14]     packing[1]  6
    x[14]     packing[2]  146
    x[14]     packing[3]  55
    x[14]     packing[4]  27
    x[14]     packing[5]  150
    x[14]     packing[6]  47
    x[14]     packing[7]  72
    x[14]     packing[8]  151
    x[14]     packing[9]  77
    x[14]     packing[10]  174
    x[14]     packing[11]  198
    x[14]     packing[12]  32
    x[14]     packing[13]  1
    x[14]     packing[15]  158
    x[14]     packing[16]  138
    x[14]     packing[18]  77
    x[14]     packing[19]  92
    x[14]     packing[20]  141
    x[14]     packing[21]  70
    x[14]     packing[23]  123
    x[14]     packing[24]  135
    x[14]     packing[26]  36
    x[14]     packing[28]  3
    x[14]     packing[29]  104
    x[14]     packing[30]  99
    x[14]     packing[31]  130
    x[14]     packing[32]  46
    x[14]     packing[33]  75
    x[14]     packing[34]  70
    x[14]     packing[36]  49
    x[14]     packing[39]  91
    x[14]     packing[40]  30
    x[14]     packing[41]  30
    x[14]     packing[42]  98
    x[14]     packing[44]  58
    x[14]     packing[45]  51
    x[14]     packing[46]  145
    x[14]     packing[47]  163
    x[14]     packing[48]  119
    x[14]     R50       1
    x[15]     OBJ       159
    x[15]     packing[1]  159
    x[15]     packing[2]  174
    x[15]     packing[3]  158
    x[15]     packing[4]  117
    x[15]     packing[5]  192
    x[15]     packing[7]  25
    x[15]     packing[8]  134
    x[15]     packing[9]  187
    x[15]     packing[10]  40
    x[15]     packing[13]  177
    x[15]     packing[14]  95
    x[15]     packing[15]  66
    x[15]     packing[16]  81
    x[15]     packing[17]  152
    x[15]     packing[18]  42
    x[15]     packing[19]  145
    x[15]     packing[20]  101
    x[15]     packing[21]  194
    x[15]     packing[22]  50
    x[15]     packing[23]  82
    x[15]     packing[24]  59
    x[15]     packing[25]  122
    x[15]     packing[26]  38
    x[15]     packing[27]  50
    x[15]     packing[28]  168
    x[15]     packing[29]  87
    x[15]     packing[30]  104
    x[15]     packing[31]  16
    x[15]     packing[32]  113
    x[15]     packing[34]  56
    x[15]     packing[35]  190
    x[15]     packing[37]  40
    x[15]     packing[38]  114
    x[15]     packing[40]  126
    x[15]     packing[41]  141
    x[15]     packing[42]  82
    x[15]     packing[43]  105
    x[15]     packing[45]  88
    x[15]     packing[46]  130
    x[15]     packing[47]  89
    x[15]     packing[48]  194
    x[15]     packing[49]  128
    x[15]     R50       1
    x[16]     OBJ       110
    x[16]     packing[0]  34
    x[16]     packing[1]  196
    x[16]     packing[2]  37
    x[16]     packing[3]  9
    x[16]     packing[4]  106
    x[16]     packing[5]  98
    x[16]     packing[6]  94
    x[16]     packing[9]  16
    x[16]     packing[10]  28
    x[16]     packing[11]  32
    x[16]     packing[12]  82
    x[16]     packing[13]  108
    x[16]     packing[14]  65
    x[16]     packing[15]  127
    x[16]     packing[16]  26
    x[16]     packing[17]  57
    x[16]     packing[18]  26
    x[16]     packing[19]  85
    x[16]     packing[20]  15
    x[16]     packing[23]  161
    x[16]     packing[25]  95
    x[16]     packing[26]  117
    x[16]     packing[27]  18
    x[16]     packing[28]  180
    x[16]     packing[29]  118
    x[16]     packing[30]  178
    x[16]     packing[31]  175
    x[16]     packing[34]  163
    x[16]     packing[35]  95
    x[16]     packing[36]  34
    x[16]     packing[37]  57
    x[16]     packing[38]  99
    x[16]     packing[39]  163
    x[16]     packing[40]  23
    x[16]     packing[41]  104
    x[16]     packing[42]  36
    x[16]     packing[43]  15
    x[16]     packing[45]  111
    x[16]     packing[46]  167
    x[16]     packing[47]  104
    x[16]     packing[48]  197
    x[16]     packing[49]  74
    x[17]     OBJ       181
    x[17]     packing[0]  58
    x[17]     packing[1]  178
    x[17]     packing[2]  127
    x[17]     packing[3]  126
    x[17]     packing[4]  60
    x[17]     packing[5]  137
    x[17]     packing[6]  46
    x[17]     packing[7]  103
    x[17]     packing[8]  39
    x[17]     packing[10]  72
    x[17]     packing[11]  135
    x[17]     packing[12]  28
    x[17]     packing[13]  95
    x[17]     packing[14]  35
    x[17]     packing[15]  138
    x[17]     packing[16]  176
    x[17]     packing[17]  30
    x[17]     packing[18]  191
    x[17]     packing[19]  198
    x[17]     packing[21]  108
    x[17]     packing[22]  103
    x[17]     packing[23]  173
    x[17]     packing[24]  6
    x[17]     packing[25]  144
    x[17]     packing[26]  197
    x[17]     packing[27]  48
    x[17]     packing[28]  128
    x[17]     packing[29]  132
    x[17]     packing[30]  145
    x[17]     packing[32]  189
    x[17]     packing[33]  176
    x[17]     packing[34]  169
    x[17]     packing[35]  40
    x[17]     packing[36]  199
    x[17]     packing[37]  175
    x[17]     packing[38]  96
    x[17]     packing[39]  85
    x[17]     packing[40]  3
    x[17]     packing[41]  84
    x[17]     packing[43]  135
    x[17]     packing[44]  1
    x[17]     packing[45]  24
    x[17]     packing[47]  20
    x[17]     packing[48]  189
    x[17]     packing[49]  7
    x[17]     R50       1
    x[18]     OBJ       112
    x[18]     packing[0]  98
    x[18]     packing[1]  59
    x[18]     packing[2]  92
    x[18]     packing[3]  77
    x[18]     packing[4]  66
    x[18]     packing[6]  41
    x[18]     packing[7]  119
    x[18]     packing[8]  51
    x[18]     packing[9]  11
    x[18]     packing[10]  136
    x[18]     packing[13]  133
    x[18]     packing[14]  155
    x[18]     packing[15]  38
    x[18]     packing[16]  187
    x[18]     packing[17]  117
    x[18]     packing[18]  192
    x[18]     packing[20]  71
    x[18]     packing[22]  145
    x[18]     packing[23]  183
    x[18]     packing[27]  63
    x[18]     packing[28]  142
    x[18]     packing[30]  168
    x[18]     packing[31]  196
    x[18]     packing[34]  152
    x[18]     packing[35]  39
    x[18]     packing[36]  115
    x[18]     packing[39]  81
    x[18]     packing[41]  24
    x[18]     packing[42]  47
    x[18]     packing[43]  48
    x[18]     packing[44]  11
    x[18]     packing[45]  146
    x[18]     packing[46]  158
    x[18]     packing[47]  79
    x[18]     packing[48]  143
    x[18]     packing[49]  20
    x[19]     OBJ       120
    x[19]     packing[0]  163
    x[19]     packing[1]  158
    x[19]     packing[3]  94
    x[19]     packing[4]  33
    x[19]     packing[5]  106
    x[19]     packing[7]  47
    x[19]     packing[8]  1
    x[19]     packing[9]  177
    x[19]     packing[10]  134
    x[19]     packing[11]  183
    x[19]     packing[13]  167
    x[19]     packing[14]  62
    x[19]     packing[15]  53
    x[19]     packing[16]  77
    x[19]     packing[17]  8
    x[19]     packing[18]  142
    x[19]     packing[19]  120
    x[19]     packing[20]  162
    x[19]     packing[21]  27
    x[19]     packing[22]  189
    x[19]     packing[26]  54
    x[19]     packing[28]  71
    x[19]     packing[32]  192
    x[19]     packing[33]  69
    x[19]     packing[35]  103
    x[19]     packing[36]  197
    x[19]     packing[37]  191
    x[19]     packing[39]  86
    x[19]     packing[40]  1
    x[19]     packing[41]  139
    x[19]     packing[42]  46
    x[19]     packing[43]  109
    x[19]     packing[44]  85
    x[19]     packing[45]  166
    x[19]     packing[47]  13
    x[19]     packing[48]  172
    x[19]     packing[49]  60
    x[20]     OBJ       111
    x[20]     packing[0]  39
    x[20]     packing[1]  66
    x[20]     packing[2]  32
    x[20]     packing[4]  58
    x[20]     packing[5]  197
    x[20]     packing[7]  18
    x[20]     packing[12]  176
    x[20]     packing[13]  47
    x[20]     packing[14]  183
    x[20]     packing[15]  22
    x[20]     packing[16]  55
    x[20]     packing[17]  3
    x[20]     packing[19]  157
    x[20]     packing[20]  32
    x[20]     packing[22]  23
    x[20]     packing[24]  122
    x[20]     packing[25]  15
    x[20]     packing[26]  84
    x[20]     packing[27]  174
    x[20]     packing[29]  109
    x[20]     packing[31]  26
    x[20]     packing[32]  175
    x[20]     packing[35]  100
    x[20]     packing[36]  39
    x[20]     packing[37]  132
    x[20]     packing[38]  172
    x[20]     packing[39]  69
    x[20]     packing[41]  185
    x[20]     packing[42]  76
    x[20]     packing[43]  66
    x[20]     packing[44]  158
    x[20]     packing[45]  195
    x[20]     packing[47]  44
    x[20]     packing[48]  169
    x[20]     packing[49]  133
    MARKER    'MARKER'                 'INTEND'
RHS
    RHS1      packing[0]  758
    RHS1      packing[1]  832
    RHS1      packing[2]  791
    RHS1      packing[3]  717
    RHS1      packing[4]  705
    RHS1      packing[5]  902
    RHS1      packing[6]  604
    RHS1      packing[7]  775
    RHS1      packing[8]  812
    RHS1      packing[9]  772
    RHS1      packing[10]  665
    RHS1      packing[11]  586
    RHS1      packing[12]  611
    RHS1      packing[13]  846
    RHS1      packing[14]  789
    RHS1      packing[15]  543
    RHS1      packing[16]  858
    RHS1      packing[17]  804
    RHS1      packing[18]  718
    RHS1      packing[19]  741
    RHS1      packing[20]  877
    RHS1      packing[21]  662
    RHS1      packing[22]  691
    RHS1      packing[23]  794
    RHS1      packing[24]  427
    RHS1      packing[25]  621
    RHS1      packing[26]  736
    RHS1      packing[27]  771
    RHS1      packing[28]  630
    RHS1      packing[29]  673
    RHS1      packing[30]  822
    RHS1      packing[31]  842
    RHS1      packing[32]  952
    RHS1      packing[33]  632
    RHS1      packing[34]  796
    RHS1      packing[35]  863
    RHS1      packing[36]  855
    RHS1      packing[37]  868
    RHS1      packing[38]  513
    RHS1      packing[39]  735
    RHS1      packing[40]  832
    RHS1      packing[41]  971
    RHS1      packing[42]  569
    RHS1      packing[43]  711
    RHS1      packing[44]  618
    RHS1      packing[45]  1041
    RHS1      packing[46]  859
    RHS1      packing[47]  639
    RHS1      packing[48]  1113
    RHS1      packing[49]  875
    RHS1      R50       5
BOUNDS
 BV BND1      x[1]    
 BV BND1      x[2]    
 BV BND1      x[3]    
 BV BND1      x[4]    
 BV BND1      x[5]    
 BV BND1      x[6]    
 BV BND1      x[7]    
 BV BND1      x[8]    
 BV BND1      x[9]    
 BV BND1      x[10]   
 BV BND1      x[11]   
 BV BND1      x[12]   
 BV BND1      x[13]   
 BV BND1      x[14]   
 BV BND1      x[15]   
 BV BND1      x[16]   
 BV BND1      x[17]   
 BV BND1      x[18]   
 BV BND1      x[19]   
 BV BND1      x[20]   
ENDATA
